%%%%%%%%%%%%%%%%%%%%%%%%%%%%%%%%%%%%%%%%%%%%%%%%%%%%%%%%%%%%%%%%%%%%%%%%%
%FILE DATA:	Soccer Computational Problem for MiniZinc Models
%AUTHORS:	Robinson Duque, Alejandro Arbelaez, Juan Francisco Díaz
%CONTACT:  	robinson.duque@correounivalle.edu.co 
%LAST UPDATE:	May, 2018 
%ROUND ROBIN:2
%TEAMS:20
%PRESENT FIXTURE:20
%FIXTURES TO PLAY:18
%GAMES TO PLAY:180
%%%%%%%%%%%%%%%%%%%%%%%%%%%%%%%%%%%%%%%%%%%%%%%%%%%%%%%%%%%%%%%%%%%%%%%%%
%Number of teams:
n=20;

%For the purpose of our models, we offer two representations of the games to play, namely fixtures and games to play:

%Fixtures to play:
%fixtures=[|0,1,1,0,1,1,1,1,1,1,1,1,1,1,1,1,1,1,1,1
%|1,0,1,1,1,1,1,0,1,1,1,1,1,1,1,1,1,1,1,1
%|1,1,0,1,1,1,1,1,0,1,1,1,1,1,1,1,1,1,1,1
%|0,1,1,0,1,1,1,1,1,1,1,1,1,1,1,1,1,1,1,1
%|1,1,1,1,0,1,0,1,1,1,1,1,1,1,1,1,1,1,1,1
%|1,1,1,1,1,0,1,1,1,0,1,1,1,1,1,1,1,1,1,1
%|1,1,1,1,0,1,0,1,1,1,1,1,1,1,1,1,1,1,1,1
%|1,0,1,1,1,1,1,0,1,1,1,1,1,1,1,1,1,1,1,1
%|1,1,0,1,1,1,1,1,0,1,1,1,1,1,1,1,1,1,1,1
%|1,1,1,1,1,0,1,1,1,0,1,1,1,1,1,1,1,1,1,1
%|1,1,1,1,1,1,1,1,1,1,0,1,0,1,1,1,1,1,1,1
%|1,1,1,1,1,1,1,1,1,1,1,0,1,0,1,1,1,1,1,1
%|1,1,1,1,1,1,1,1,1,1,0,1,0,1,1,1,1,1,1,1
%|1,1,1,1,1,1,1,1,1,1,1,0,1,0,1,1,1,1,1,1
%|1,1,1,1,1,1,1,1,1,1,1,1,1,1,0,1,1,0,1,1
%|1,1,1,1,1,1,1,1,1,1,1,1,1,1,1,0,1,1,1,0
%|1,1,1,1,1,1,1,1,1,1,1,1,1,1,1,1,0,1,0,1
%|1,1,1,1,1,1,1,1,1,1,1,1,1,1,0,1,1,0,1,1
%|1,1,1,1,1,1,1,1,1,1,1,1,1,1,1,1,0,1,0,1
%|1,1,1,1,1,1,1,1,1,1,1,1,1,1,1,0,1,1,1,0|];

%Played Fixtures:
%PlayedFixtures=[|0,1,1,2,1,1,1,1,1,1,1,1,1,1,1,1,1,1,1,1
%|1,0,1,1,1,1,1,2,1,1,1,1,1,1,1,1,1,1,1,1
%|1,1,0,1,1,1,1,1,2,1,1,1,1,1,1,1,1,1,1,1
%|2,1,1,0,1,1,1,1,1,1,1,1,1,1,1,1,1,1,1,1
%|1,1,1,1,0,1,2,1,1,1,1,1,1,1,1,1,1,1,1,1
%|1,1,1,1,1,0,1,1,1,2,1,1,1,1,1,1,1,1,1,1
%|1,1,1,1,2,1,0,1,1,1,1,1,1,1,1,1,1,1,1,1
%|1,2,1,1,1,1,1,0,1,1,1,1,1,1,1,1,1,1,1,1
%|1,1,2,1,1,1,1,1,0,1,1,1,1,1,1,1,1,1,1,1
%|1,1,1,1,1,2,1,1,1,0,1,1,1,1,1,1,1,1,1,1
%|1,1,1,1,1,1,1,1,1,1,0,1,2,1,1,1,1,1,1,1
%|1,1,1,1,1,1,1,1,1,1,1,0,1,2,1,1,1,1,1,1
%|1,1,1,1,1,1,1,1,1,1,2,1,0,1,1,1,1,1,1,1
%|1,1,1,1,1,1,1,1,1,1,1,2,1,0,1,1,1,1,1,1
%|1,1,1,1,1,1,1,1,1,1,1,1,1,1,0,1,1,2,1,1
%|1,1,1,1,1,1,1,1,1,1,1,1,1,1,1,0,1,1,1,2
%|1,1,1,1,1,1,1,1,1,1,1,1,1,1,1,1,0,1,2,1
%|1,1,1,1,1,1,1,1,1,1,1,1,1,1,2,1,1,0,1,1
%|1,1,1,1,1,1,1,1,1,1,1,1,1,1,1,1,2,1,0,1
%|1,1,1,1,1,1,1,1,1,1,1,1,1,1,1,2,1,1,1,0|];

%Games to play:
games=[|2,1|3,1|3,2|4,2|4,3|5,1|5,2|5,3|5,4|6,1|6,2|6,3|6,4|6,5|7,1|7,2|7,3|7,4|7,6|8,1|8,3|8,4|8,5|8,6|8,7|9,1|9,2|9,4|9,5|9,6|9,7|9,8|10,1|10,2|10,3|10,4|10,5|10,7|10,8|10,9|11,1|11,2|11,3|11,4|11,5|11,6|11,7|11,8|11,9|11,10|12,1|12,2|12,3|12,4|12,5|12,6|12,7|12,8|12,9|12,10|12,11|13,1|13,2|13,3|13,4|13,5|13,6|13,7|13,8|13,9|13,10|13,12|14,1|14,2|14,3|14,4|14,5|14,6|14,7|14,8|14,9|14,10|14,11|14,13|15,1|15,2|15,3|15,4|15,5|15,6|15,7|15,8|15,9|15,10|15,11|15,12|15,13|15,14|16,1|16,2|16,3|16,4|16,5|16,6|16,7|16,8|16,9|16,10|16,11|16,12|16,13|16,14|16,15|17,1|17,2|17,3|17,4|17,5|17,6|17,7|17,8|17,9|17,10|17,11|17,12|17,13|17,14|17,15|17,16|18,1|18,2|18,3|18,4|18,5|18,6|18,7|18,8|18,9|18,10|18,11|18,12|18,13|18,14|18,16|18,17|19,1|19,2|19,3|19,4|19,5|19,6|19,7|19,8|19,9|19,10|19,11|19,12|19,13|19,14|19,15|19,16|19,18|20,1|20,2|20,3|20,4|20,5|20,6|20,7|20,8|20,9|20,10|20,11|20,12|20,13|20,14|20,15|20,17|20,18|20,19|];

%Played Games:
%PlayedGames=[|2,1|3,1|3,2|4,1|4,1|4,2|4,3|5,1|5,2|5,3|5,4|6,1|6,2|6,3|6,4|6,5|7,1|7,2|7,3|7,4|7,5|7,5|7,6|8,1|8,2|8,2|8,3|8,4|8,5|8,6|8,7|9,1|9,2|9,3|9,3|9,4|9,5|9,6|9,7|9,8|10,1|10,2|10,3|10,4|10,5|10,6|10,6|10,7|10,8|10,9|11,1|11,2|11,3|11,4|11,5|11,6|11,7|11,8|11,9|11,10|12,1|12,2|12,3|12,4|12,5|12,6|12,7|12,8|12,9|12,10|12,11|13,1|13,2|13,3|13,4|13,5|13,6|13,7|13,8|13,9|13,10|13,11|13,11|13,12|14,1|14,2|14,3|14,4|14,5|14,6|14,7|14,8|14,9|14,10|14,11|14,12|14,12|14,13|15,1|15,2|15,3|15,4|15,5|15,6|15,7|15,8|15,9|15,10|15,11|15,12|15,13|15,14|16,1|16,2|16,3|16,4|16,5|16,6|16,7|16,8|16,9|16,10|16,11|16,12|16,13|16,14|16,15|17,1|17,2|17,3|17,4|17,5|17,6|17,7|17,8|17,9|17,10|17,11|17,12|17,13|17,14|17,15|17,16|18,1|18,2|18,3|18,4|18,5|18,6|18,7|18,8|18,9|18,10|18,11|18,12|18,13|18,14|18,15|18,15|18,16|18,17|19,1|19,2|19,3|19,4|19,5|19,6|19,7|19,8|19,9|19,10|19,11|19,12|19,13|19,14|19,15|19,16|19,17|19,17|19,18|20,1|20,2|20,3|20,4|20,5|20,6|20,7|20,8|20,9|20,10|20,11|20,12|20,13|20,14|20,15|20,16|20,16|20,17|20,18|20,19|];

%Played Games - Win Results:
%% 0  0  0  0  0  0  0  0  0  0  0  0  0  0  0  1  0  0  0  0
%% 0  0  0  0  0  0  0  0  1  0  0  0  0  0  0  0  0  0  0  0
%% 1  0  0  0  1  1  1  0  0  0  0  1  0  0  0  1  0  0  1  1
%% 0  0  0  0  0  0  0  0  1  0  0  0  0  0  1  0  0  0  0  0
%% 0  1  0  0  0  0  0  0  1  0  0  0  0  0  1  0  0  0  0  0
%% 1  1  0  1  0  0  0  0  0  0  0  0  0  0  0  1  0  0  0  1
%% 0  1  0  0  0  0  0  0  0  0  0  0  0  1  0  0  0  1  0  1
%% 0  0  1  1  0  1  1  0  0  1  0  0  0  0  0  1  0  1  1  0
%% 0  0  0  0  0  0  0  0  0  0  1  0  0  0  0  0  0  0  0  0
%% 0  0  0  0  0  0  0  0  0  0  0  0  0  0  1  0  0  0  0  0
%% 0  0  0  0  0  0  0  0  0  0  0  0  0  0  0  0  0  0  0  0
%% 1  1  0  0  0  1  1  0  0  0  0  0  0  0  1  0  0  0  1  1
%% 1  0  0  1  0  1  1  1  0  1  0  0  0  0  1  1  0  1  1  1
%% 1  0  0  0  1  0  0  0  1  1  1  0  0  0  0  1  0  0  0  0
%% 0  1  0  0  0  0  0  0  0  0  1  0  0  0  0  0  0  0  0  0
%% 0  0  0  1  0  0  0  0  0  0  0  0  0  0  0  0  0  0  0  0
%% 1  0  0  1  1  0  0  1  0  1  0  1  1  1  0  1  0  1  0  1
%% 1  0  0  0  1  0  0  0  0  0  0  0  0  1  0  0  0  0  0  1
%% 1  0  0  0  0  0  0  0  1  1  0  0  0  1  0  1  0  0  0  0
%% 0  0  0  0  0  0  0  0  0  0  1  0  0  0  0  0  0  0  0  0
%Played Games - Tie Results:
%% 0  1  0  2  1  0  1  1  1  1  1  0  0  0  1  0  0  0  0  1
%% 1  0  1  1  0  0  0  2  0  1  1  0  1  1  0  1  1  1  1  1
%% 0  1  0  1  0  0  0  0  2  1  1  0  1  1  1  0  1  1  0  0
%% 2  1  1  0  1  0  1  0  0  1  1  1  0  1  0  0  0  1  1  1
%% 1  0  0  1  0  1  2  1  0  1  1  1  1  0  0  1  0  0  1  1
%% 0  0  0  0  1  0  1  0  1  2  1  0  0  1  1  0  1  1  1  0
%% 1  0  0  1  2  1  0  0  1  1  1  0  0  0  1  1  1  0  1  0
%% 1  2  0  0  1  0  0  0  1  0  1  1  0  1  1  0  0  0  0  1
%% 1  0  2  0  0  1  1  1  0  1  0  1  1  0  1  1  1  1  0  1
%% 1  1  1  1  1  2  1  0  1  0  1  1  0  0  0  1  0  1  0  1
%% 1  1  1  1  1  1  1  1  0  1  0  1  2  0  0  1  1  1  1  0
%% 0  0  0  1  1  0  0  1  1  1  1  0  1  2  0  1  0  1  0  0
%% 0  1  1  0  1  0  0  0  1  0  2  1  0  1  0  0  0  0  0  0
%% 0  1  1  1  0  1  0  1  0  0  0  2  1  0  1  0  0  0  0  1
%% 1  0  1  0  0  1  1  1  1  0  0  0  0  1  0  1  1  2  1  1
%% 0  1  0  0  1  0  1  0  1  1  1  1  0  0  1  0  0  1  0  2
%% 0  1  1  0  0  1  1  0  1  0  1  0  0  0  1  0  0  0  2  0
%% 0  1  1  1  0  1  0  0  1  1  1  1  0  0  2  1  0  0  1  0
%% 0  1  0  1  1  1  1  0  0  0  1  0  0  0  1  0  2  1  0  1
%% 1  1  0  1  1  0  0  1  1  1  0  0  0  1  1  2  0  0  1  0
%Played Games - Lose Results:
%% 0  0  1  0  0  1  0  0  0  0  0  1  1  1  0  0  1  1  1  0
%% 0  0  0  0  1  1  1  0  0  0  0  1  0  0  1  0  0  0  0  0
%% 0  0  0  0  0  0  0  1  0  0  0  0  0  0  0  0  0  0  0  0
%% 0  0  0  0  0  1  0  1  0  0  0  0  1  0  0  1  1  0  0  0
%% 0  0  1  0  0  0  0  0  0  0  0  0  0  1  0  0  1  1  0  0
%% 0  0  1  0  0  0  0  1  0  0  0  1  1  0  0  0  0  0  0  0
%% 0  0  1  0  0  0  0  1  0  0  0  1  1  0  0  0  0  0  0  0
%% 0  0  0  0  0  0  0  0  0  0  0  0  1  0  0  0  1  0  0  0
%% 0  1  0  1  1  0  0  0  0  0  0  0  0  1  0  0  0  0  1  0
%% 0  0  0  0  0  0  0  1  0  0  0  0  1  1  0  0  1  0  1  0
%% 0  0  0  0  0  0  0  0  1  0  0  0  0  1  1  0  0  0  0  1
%% 0  0  1  0  0  0  0  0  0  0  0  0  0  0  0  0  1  0  0  0
%% 0  0  0  0  0  0  0  0  0  0  0  0  0  0  0  0  1  0  0  0
%% 0  0  0  0  0  0  1  0  0  0  0  0  0  0  0  0  1  1  1  0
%% 0  0  0  1  1  0  0  0  0  1  0  1  1  0  0  0  0  0  0  0
%% 1  0  1  0  0  1  0  1  0  0  0  0  1  1  0  0  1  0  1  0
%% 0  0  0  0  0  0  0  0  0  0  0  0  0  0  0  0  0  0  0  0
%% 0  0  0  0  0  0  1  1  0  0  0  0  1  0  0  0  1  0  0  0
%% 0  0  1  0  0  0  0  1  0  0  0  1  1  0  0  0  0  0  0  0
%% 0  0  1  0  0  1  1  0  0  0  0  1  1  0  0  0  1  1  0  0

%%Initial points:
iPoints=[14, 17, 35, 19, 22, 26, 24, 34, 17, 17, 16, 32, 41, 28, 19, 14, 42, 24, 26, 15];

%%Initial positions:
%iPositions=[20, 16, 3, 13, 11, 8, 10, 4, 15, 14, 17, 5, 2, 6, 12, 19, 1, 9, 7, 18];

%%Position Constraints:
%numberPositionConstraints=1;

%%Total Fixtures:
%totalFixtures=38;

%%Fixtures to Play:
%fixturesToPlay=18;

%%Position Constraints Built With
%wantedPoints=[0, 0, 0, 3, 0, 0, 0, 0, 3, 0, 3, 0, 1, 3, 1, 1, 1, 1, 0, 0, 0, 3, 0, 1, 3, 1, 3, 0, 0, 3, 3, 0, 0, 3, 0, 0, 3, 1, 1, 3, 1, 1, 1, 3, 1, 3, 0, 1, 1, 3, 1, 0, 3, 0, 0, 3, 1, 0, 0, 0, 3, 1, 0, 3, 3, 0, 3, 1, 0, 0, 1, 0, 3, 3, 1, 1, 0, 0, 1, 1, 0, 1, 1, 0, 3, 0, 3, 1, 3, 1, 0, 3, 3, 1, 1, 0, 1, 1, 3, 0, 0, 3, 0, 1, 1, 3, 1, 1, 1, 1, 0, 3, 3, 0, 0, 1, 0, 0, 0, 3, 0, 0, 1, 3, 0, 3, 0, 3, 0, 3, 1, 3, 3, 3, 1, 1, 0, 0, 3, 3, 3, 0, 3, 3, 1, 0, 1, 0, 3, 3, 1, 3, 0, 1, 3, 0, 1, 1, 1, 1, 1, 1, 3, 3, 1, 1, 1, 3, 3, 0, 3, 0, 0, 3, 3, 3, 1, 1, 0, 0];

%%Probabilities:
probabilities=[|22,41,0,37,|61,10,0,29,|10,43,0,47,|4,64,0,32,|34,37,0,29,|18,22,0,60,|22,73,0,5,|45,45,0,10,|67,11,0,22,|50,41,0,9,|45,2,0,53,|32,27,0,41,|89,5,0,6,|48,0,0,52,|95,0,0,5,|23,18,0,59,|55,31,0,14,|64,33,0,3,|1,45,0,54,|14,75,0,11,|79,0,0,21,|97,3,0,0,|38,43,0,19,|24,50,0,26,|12,67,0,21,|8,71,0,21,|1,85,0,14,|0,24,0,76,|69,4,0,27,|43,52,0,5,|32,50,0,18,|84,16,0,0,|71,1,0,28,|97,1,0,2,|7,73,0,20,|49,23,0,28,|60,26,0,14,|96,2,0,2,|2,69,0,29,|80,13,0,7,|55,25,0,20,|23,39,0,38,|61,34,0,5,|36,49,0,15,|97,3,0,0,|9,9,0,82,|22,42,0,36,|99,1,0,0,|97,0,0,3,|79,12,0,9,|99,1,0,0,|85,14,0,1,|26,74,0,0,|83,7,0,10,|46,18,0,36,|96,1,0,3,|9,7,0,84,|82,5,0,13,|99,1,0,0,|29,7,0,64,|65,16,0,19,|60,17,0,23,|25,45,0,30,|72,15,0,13,|7,62,0,31,|23,4,0,73,|95,3,0,2,|78,19,0,3,|66,29,0,5,|41,16,0,43,|24,16,0,60,|85,1,0,14,|36,36,0,28,|68,8,0,24,|97,2,0,1,|95,0,0,5,|25,8,0,67,|51,40,0,9,|92,4,0,4,|32,8,0,60,|78,6,0,16,|7,92,0,1,|98,0,0,2,|4,87,0,9,|88,2,0,10,|54,44,0,2,|90,4,0,6,|63,15,0,22,|24,5,0,71,|25,17,0,58,|14,76,0,10,|54,8,0,38,|60,21,0,19,|72,14,0,14,|60,22,0,18,|82,13,0,5,|61,5,0,34,|100,0,0,0,|49,40,0,11,|64,15,0,21,|16,77,0,7,|48,43,0,9,|39,60,0,1,|5,43,0,52,|100,0,0,0,|7,84,0,9,|50,45,0,5,|85,1,0,14,|12,54,0,34,|33,15,0,52,|62,37,0,1,|61,22,0,17,|2,11,0,87,|75,15,0,10,|18,35,0,47,|67,0,0,33,|76,24,0,0,|56,42,0,2,|66,2,0,32,|76,6,0,18,|47,7,0,46,|51,49,0,0,|12,88,0,0,|64,26,0,10,|91,9,0,0,|33,17,0,50,|90,7,0,3,|69,10,0,21,|4,15,0,81,|17,50,0,33,|61,34,0,5,|78,15,0,7,|39,18,0,43,|45,13,0,42,|82,9,0,9,|55,14,0,31,|3,7,0,90,|14,34,0,52,|51,18,0,31,|90,4,0,6,|25,7,0,68,|47,22,0,31,|86,12,0,2,|34,0,0,66,|42,53,0,5,|6,33,0,61,|16,47,0,37,|86,4,0,10,|2,50,0,48,|87,2,0,11,|77,12,0,11,|82,6,0,12,|27,8,0,65,|61,25,0,14,|48,41,0,11,|68,14,0,18,|18,74,0,8,|81,1,0,18,|21,71,0,8,|89,7,0,4,|52,24,0,24,|14,69,0,17,|4,39,0,57,|66,25,0,9,|62,17,0,21,|41,20,0,39,|80,7,0,13,|85,0,0,15,|34,60,0,6,|20,65,0,15,|16,66,0,18,|55,24,0,21,|50,40,0,10,|53,42,0,5,|54,3,0,43,|57,27,0,16,|5,43,0,52,|92,4,0,4,|84,5,0,11,|22,43,0,35,|];


%POSITION CONSTRAINTS
%%[|teamID, operator, position|...]
%%operators index:
%%%1 for =  operator
%%%2 for >  operator
%%%3 for >= operator
%%%4 for <  operator
%%%5 for <= operator

positionConstraints=[|10,1,18|];

%SCORE VECTOR CONSTRAINTS
%%[|teamID, operator, wantedPoints|...]
%%operators index:
%%%1 for =  operator
%%%2 for >  operator
%%%3 for >= operator
%%%4 for <  operator
%%%5 for <= operator

%scoreVectorConstraints=[|10,1,39|];

%Instance Features:
%features=T,FP,TF,C,C/T,C/TF,FP/TF,FP/T,FP*C/T,FP*T/C,(C/T)*(FP/TF),Distance,Distance/C,Distance/T,Distance/(C*T)
%values=20,18,38,1,0.05,0.02631578947368421,0.4736842105263158,0.9,0.9,360.0,0.02368421052631579,4,4.0,0.2,0.2



